(set-logic ALL)
(declare-const BAV1 Bool)
(declare-const BAV2 Bool)
(declare-const BAV3 Bool)
(declare-sort U 0)
(declare-fun f (U) U)
(declare-fun g (U) U)
(declare-fun h (U) U)
(declare-fun a () U)
(assert (= f g))
(assert (= g h))
(assert (not (= f h)))
(assert (= BAV1 (= f g)))
(assert (= BAV2 (= g h)))
(assert (= BAV3 (= f h)))
(check-sat)
(get-model)